40
1 1185 1446
2 2158 2355
3 149 562
4 578 1764
5 1437 753
6 2184 1822
7 2669 1015
8 2126 92
9 2609 2102
10 1696 1855
11 1299 1903
12 2783 714
13 1209 1650
14 252 922
15 1565 2536
16 1503 1349
17 2557 1143
18 2740 2226
19 2580 630
20 349 1186
21 2208 1554
22 1766 981
23 1062 2416
24 2084 1624
25 562 1971
26 1304 477
27 2676 1768
28 2643 2124
29 783 737
30 585 625
31 84 815
32 1987 2910
33 1599 2755
34 2864 2138
35 2176 2790
36 1773 938
37 1572 2056
38 2197 967
39 4 462
40 393 560
